This is Ipopt version 3.14.14, running with linear solver ma57.

Number of nonzeros in equality constraint Jacobian...:     2104
Number of nonzeros in inequality constraint Jacobian.:        0
Number of nonzeros in Lagrangian Hessian.............:     4900

Total number of variables............................:      405
                     variables with only lower bounds:      203
                variables with lower and upper bounds:      202
                     variables with only upper bounds:        0
Total number of equality constraints.................:      304
Total number of inequality constraints...............:        0
        inequality constraints with only lower bounds:        0
   inequality constraints with lower and upper bounds:        0
        inequality constraints with only upper bounds:        0

iter    objective    inf_pr   inf_du lg(mu)  ||d||  lg(rg) alpha_du alpha_pr  ls
   0  1.0100000e+00 3.50e-02 1.63e+00   0.0 0.00e+00    -  0.00e+00 0.00e+00   0
   1  1.0009573e+00 1.93e-02 3.36e+02  -1.5 1.45e+00    -  2.11e-01 4.34e-01h  1
   2  1.0036899e+00 8.48e-03 1.41e+03  -2.2 1.67e+00    -  5.03e-01 6.64e-01h  1
   3  1.0045431e+00 6.38e-03 1.45e+03  -2.0 1.25e+00    -  6.28e-01 8.87e-01h  1
   4  1.0110605e+00 4.29e-03 7.20e+03  -1.5 8.03e-01    -  8.70e-02 9.90e-01f  1
   5  1.0100610e+00 1.28e-04 1.48e+02  -2.0 5.52e-02    -  9.83e-01 9.95e-01f  1
   6  1.0097789e+00 2.88e-06 2.05e+01  -3.2 8.33e-02    -  1.00e+00 1.00e+00h  1
   7  1.0098418e+00 5.64e-08 2.34e-01  -4.6 3.12e-02    -  1.00e+00 1.00e+00h  1
   8  1.0114487e+00 1.74e-04 1.36e-01  -5.2 9.05e-01    -  1.00e+00 1.00e+00h  1
   9  1.0124863e+00 1.64e-04 4.16e+00  -5.7 6.11e-01    -  1.00e+00 9.91e-01h  1
iter    objective    inf_pr   inf_du lg(mu)  ||d||  lg(rg) alpha_du alpha_pr  ls
  10  1.0126628e+00 7.59e-05 2.05e-01  -5.9 8.38e-01    -  1.00e+00 9.98e-01h  1
  11  1.0127794e+00 5.14e-05 2.44e-04  -6.4 8.29e-01    -  1.00e+00 1.00e+00h  1
  12  1.0128215e+00 2.48e-05 3.08e-04  -7.1 8.27e-01    -  1.00e+00 1.00e+00h  1
  13  1.0128308e+00 8.87e-06 1.22e-04  -8.0 9.47e-01    -  1.00e+00 1.00e+00h  1
  14  1.0128318e+00 1.22e-06 1.73e-05  -8.8 3.77e-01    -  1.00e+00 1.00e+00h  1
  15  1.0128319e+00 2.59e-08 8.18e-05  -9.2 7.31e-02    -  1.00e+00 9.99e-01h  1
  16  1.0128320e+00 7.02e-09 2.31e-04 -10.3 4.29e-02    -  1.00e+00 9.96e-01h  1
  17  1.0128320e+00 4.16e-10 2.62e-08 -10.7 4.05e-03    -  1.00e+00 1.00e+00h  1
  18  1.0128320e+00 9.55e-11 2.52e-04 -11.0 6.04e-04    -  1.00e+00 7.81e-01h  1
  19  1.0128320e+00 6.22e-13 4.21e-09 -11.0 1.53e-04    -  1.00e+00 1.00e+00f  1

Number of Iterations....: 19

                                   (scaled)                 (unscaled)
Objective...............:  -1.0128320238051771e+00    1.0128320238051771e+00
Dual infeasibility......:   4.2074875695086502e-09    4.2074875695086502e-09
Constraint violation....:   6.2158611591200952e-13    6.2158611591200952e-13
Variable bound violation:   7.0688829959608202e-35    7.0688829959608202e-35
Complementarity.........:   1.1449953953455260e-11    1.1449953953455260e-11
Overall NLP error.......:   4.2074875695086502e-09    4.2074875695086502e-09


Number of objective function evaluations             = 20
Number of objective gradient evaluations             = 20
Number of equality constraint evaluations            = 20
Number of inequality constraint evaluations          = 0
Number of equality constraint Jacobian evaluations   = 20
Number of inequality constraint Jacobian evaluations = 0
Number of Lagrangian Hessian evaluations             = 19
Total seconds in IPOPT                               = 0.021

EXIT: Optimal Solution Found.
